&SYSTEM
  ibrav = 0
  ecutwfc = 150
  tot_charge = -1.0
  nspin = 2
  tot_magnetization = 2.0
  nat = 63
  ntyp = 2
/
!    ibrav = 0, nat = 63, ntyp = 2
CELL_PARAMETERS bohr
   13.4926446281248040    0.0000000000000000    0.0000000000000000
    0.0000000000000000   13.4926446281248040    0.0000000000000000
    0.0000000000000000    0.0000000000000000   13.4926446281248040
ATOMIC_SPECIES
  N   14.00670   N_PP_filename
  C   12.01070   C_PP_filename
ATOMIC_POSITIONS crystal
  N   0.4865450467470007  0.4865454678984884  0.4865442091694931
  C   0.4907818847153653  0.7605701351789443  0.7605671416651423
  C   0.6213022656748773  0.8737466915820087  0.8737433357277413
  C   0.7605693662142967  0.4907808889750400  0.7605702136872149
  C   0.8737461147006172  0.6213056325708322  0.8737467193499815
  C   0.7605702343201989  0.7605695715850077  0.4907765872084021
  C   0.8737439141998843  0.8737433632851737  0.6213025512615774
  C   0.4997368944068629  0.4997341202530285  0.9994234857275086
  C   0.6252666049442166  0.6252649330408850  0.1246819847208917
  C   0.5016545573145692  0.7485060164090764  0.2518766506546416
  C   0.6301571342374945  0.8728733327059991  0.3776836521680564
  C   0.7485060270998630  0.5016577815107478  0.2518789044455534
  C   0.8728767724958071  0.6301580819043705  0.3776839031793025
  C   0.7497283286512386  0.7497255133016164  0.9999949939533769
  C   0.8744618006801745  0.8744622277268006  0.1251755246953508
  C   0.4997370648278254  0.9994212422764821  0.4997364768579597
  C   0.6252657679515443  0.1246834483527299  0.6252657846076494
  C   0.5016571180503610  0.2518743956940594  0.7485088673634627
  C   0.6301596199506331  0.3776839309004886  0.8728770273435718
  C   0.7497290927032711  0.9999896576133598  0.7497275663069247
  C   0.8744596103789665  0.1251746310204558  0.8744619270045668
  C   0.7485054264975580  0.2518766521986064  0.5016563862578353
  C   0.8728806266764084  0.3776836191599606  0.6301574540955344
  C   0.5023044003595534  0.0014515394863748  0.0014471003068702
  C   0.6247483682574606  0.1256549457229105  0.1256516994433568
  C   0.5012092232467962  0.2482115712262612  0.2482111841121791
  C   0.6168873766372212  0.3764755828535486  0.3764755785725553
  C   0.7477504402355751  0.0005752781305882  0.2488705415126893
  C   0.8743293969528408  0.1262222806341896  0.3757736358168672
  C   0.7477464693686648  0.2488703416394286  0.0005757131543657
  C   0.8743318301243896  0.3757740779054534  0.1262217528555575
  C   0.9994219190477170  0.4997368686741163  0.4997392120149862
  C   0.1246820137053217  0.6252618092024181  0.6252626693311690
  C   0.9999953467025455  0.7497280521645735  0.7497273057277756
  C   0.1251750704421936  0.8744600925872439  0.8744635231600498
  C   0.2518762153033564  0.5016575680927051  0.7485033944761349
  C   0.3776835935909678  0.6301569318611394  0.8728798321895547
  C   0.2518785716275666  0.7485025565945130  0.5016575518342880
  C   0.3776816549560213  0.8728770352739365  0.6301574527855037
  C   0.0014492723378282  0.5023000064462892  0.0014508872548228
  C   0.1256553552478755  0.6247511914672673  0.1256545390987278
  C   0.0005761465172114  0.7477474748874338  0.2488703295918246
  C   0.1262217546100629  0.8743325503371794  0.3757741045973296
  C   0.2482116463658812  0.5012086455466356  0.2482111795738584
  C   0.3764756010536184  0.6168920541019590  0.3764791707937966
  C   0.2488707486145124  0.7477463677243158  0.0005761494647806
  C   0.3757760439106849  0.8743285702298736  0.1262233405192341
  C   0.0014472143965112  0.0014493387751011  0.5023008019156661
  C   0.1256554935029048  0.1256549418162117  0.6247511780628456
  C   0.0005761536054134  0.2488725402219024  0.7477463766372034
  C   0.1262240195596294  0.3757765288325973  0.8743301108961977
  C   0.2488731580651476  0.0005761596876990  0.7477472185424910
  C   0.3757740806892687  0.1262223983498085  0.8743335556688012
  C   0.2482090409954709  0.2482115700098041  0.5012131018969002
  C   0.3764785864265154  0.3764753380649485  0.6168902211584206
  C   0.0001479533498245  0.0001479382844711  0.0001506534167421
  C   0.1242056005198445  0.1242038653607431  0.1242038514884534
  C   0.9987765076440167  0.2500128176730880  0.2500170204856186
  C   0.1223247631103771  0.3766527806072610  0.3766528402604463
  C   0.2500135667533407  0.9987768387542849  0.2500136125108428
  C   0.3766502032153643  0.1223238609670691  0.3766527520439123
  C   0.2500101589891055  0.2500170318548139  0.9987798717561563
  C   0.3766519807165305  0.3766494264607123  0.1223237757214978